p tw 130 300
0 1
0 2
0 9
0 10
0 14
0 15
0 16
0 17
0 69
0 70
0 33
0 74
0 59
0 80
0 92
0 93
0 101
0 107
0 52
0 120
0 23
0 89
1 2
1 66
1 77
3 4
3 5
3 26
3 30
3 63
3 78
3 81
3 82
3 84
3 85
3 37
3 71
3 95
3 101
3 44
3 121
4 5
4 29
4 83
5 41
5 99
6 7
6 8
6 23
6 24
7 8
8 36
8 37
8 38
8 39
8 56
8 57
8 25
8 62
8 87
8 88
8 97
8 98
8 22
8 99
8 9
8 114
8 43
8 129
9 10
9 114
10 24
10 106
11 12
11 13
11 29
11 126
12 13
12 24
12 87
13 18
13 19
13 25
13 26
13 45
13 46
13 54
13 55
13 95
13 96
13 70
13 104
13 36
13 105
13 39
13 93
13 98
13 119
13 113
13 121
14 15
14 27
14 66
15 21
15 115
16 17
16 29
16 110
17 24
17 78
18 19
19 41
19 57
20 21
20 22
21 22
21 60
21 61
21 90
21 91
21 67
21 106
21 115
21 56
21 117
21 45
21 125
21 32
21 76
22 99
23 24
23 89
24 34
24 35
24 47
24 48
24 49
24 50
24 79
24 94
24 78
24 40
24 81
24 106
24 112
24 113
24 87
24 46
24 80
25 26
25 62
26 30
27 28
27 29
27 66
28 29
28 31
28 124
29 43
29 44
29 58
29 59
29 67
29 68
29 71
29 72
29 83
29 74
29 86
29 65
29 91
29 110
29 69
29 100
29 42
29 118
29 38
29 123
29 51
29 97
29 117
29 128
29 126
30 31
30 103
31 32
31 33
31 47
31 53
31 72
31 102
31 103
31 94
31 109
31 35
31 111
31 124
32 33
32 76
33 74
34 35
35 111
36 37
36 105
37 71
38 39
38 123
39 93
40 41
40 42
40 81
41 42
41 51
41 52
41 63
41 64
41 62
41 73
41 77
41 79
41 85
41 89
41 99
41 49
41 100
41 92
41 108
41 57
41 54
41 111
41 126
41 127
42 118
43 44
43 129
44 121
45 46
45 125
46 80
47 48
47 53
49 50
49 100
51 52
51 97
52 120
53 65
53 66
54 55
54 111
55 66
55 116
56 57
56 117
58 59
59 80
60 61
61 66
61 96
62 73
63 64
63 78
65 66
65 91
66 75
66 76
66 77
66 96
66 116
66 82
66 122
67 68
67 106
69 70
69 100
70 104
71 72
72 102
74 86
75 76
77 79
79 94
81 82
82 122
84 85
85 89
87 88
90 91
92 93
92 108
94 109
95 96
95 101
97 98
98 119
101 107
112 113
113 121
117 128
126 127
